# Solution for model GasLib-40
# Objective value = 7.8430808517664929e+01
loadshed[innode_1] 0
loadshed[innode_2] 0
loadshed[innode_3] 0
loadshed[innode_4] 0
loadshed[innode_5] 0
loadshed[innode_6] 0
loadshed[innode_7] 0
loadshed[innode_8] 0
loadshed[source_1] -2.5436304715108271e-02
loadshed[source_2] 2.4283243929490661e-01
loadshed[source_3] 0.278717918859262
loadshed[sink_1] 1
loadshed[sink_2] 0
loadshed[sink_3] 0
loadshed[sink_4] 0
loadshed[sink_5] 0
loadshed[sink_6] 0
loadshed[sink_7] 0
loadshed[sink_8] 0
loadshed[sink_9] 0
loadshed[sink_10] 0
loadshed[sink_11] 0
loadshed[sink_12] 1
loadshed[sink_13] 0
loadshed[sink_14] 0
loadshed[sink_15] 0
loadshed[sink_16] 0
loadshed[sink_17] 0
loadshed[sink_18] 3.6831731040410676e-01
loadshed[sink_19] 0
loadshed[sink_20] 0
loadshed[sink_21] 1
loadshed[sink_22] 4.6812551656608609e-01
loadshed[sink_23] 0
loadshed[sink_24] 9.5932635627556007e-01
loadshed[sink_25] 0
loadshed[sink_26] 0
loadshed[sink_27] 0
loadshed[sink_28] 0
loadshed[sink_29] 0
flow[source_1,sink_3] 1.6211151025582944e+02
flow[innode_1,sink_16] 1.6354166666666970e+01
flow[innode_6,sink_13] 4.5148210299404923e-01
flow[sink_13,sink_14] -1.5902684563672619e+01
flow[sink_14,sink_10] -3.2256851230339286e+01
flow[sink_25,sink_26] 0
flow[sink_26,sink_9] 1.6354166666669244e+01
flow[sink_9,sink_18] 0
flow[sink_26,sink_4] -3.2708333333335915e+01
flow[sink_4,sink_20] -7.9577063514195885e+01
flow[sink_18,sink_6] -1.0330643986099505e+01
flow[sink_25,innode_8] -1.2940317692249309e+02
flow[sink_6,sink_7] -3.5383174600591673e+01
flow[sink_6,sink_22] 8.6983639478254666e+00
flow[sink_7,sink_24] 6.6518354841011251e-01
flow[sink_22,sink_1] 0
flow[sink_24,sink_21] 0
flow[sink_21,sink_12] 0
flow[sink_7,sink_5] -5.2402524815668436e+01
flow[sink_5,sink_17] -68.7566914823351
flow[sink_17,sink_4] -3.0514563514193242e+01
flow[sink_17,sink_8] -5.4596294634808558e+01
flow[sink_3,sink_23] 16.3541666666697
flow[sink_8,sink_20] -7.0950461301475229e+01
flow[sink_25,sink_20] 1.6688169148233769e+02
flow[sink_25,sink_15] -5.4284163329505489e+01
flow[sink_15,sink_29] -7.0638329996172160e+01
flow[sink_29,sink_28] 1.6354166666667879e+01
flow[sink_29,sink_2] 1.6354166666684250e+01
flow[sink_2,sink_15] 0
flow[sink_29,innode_7] -1.1970082999619062e+02
flow[innode_4,sink_19] 4.3987420610878537e+01
flow[sink_19,innode_3] 3.9683500151610922e+01
flow[innode_4,innode_5] 7.0040263952794376e+01
flow[sink_27,innode_5] -7.0040263952794376e+01
flow[sink_27,sink_19] 5.3686097286127705e+01
flow[sink_10,sink_11] 3.2708333333333641e+01
flow[sink_10,innode_2] -4.1635851078728713e+01
flow[sink_10,innode_3] -3.9683500151610922e+01
flow[innode_6,sink_25] -4.5148210299404923e-01
flow[sink_11,innode_1] 1.6354166666666970e+01
flow[sink_19,innode_2] 4.1635851078728713e+01
flow[source_3,innode_4] 1.1402768456367292e+02
flow[source_2,innode_7] 1.1970082999619062e+02
flow[sink_3,innode_8] 1.2940317692249309e+02
pressure[innode_1] 7.6878879511655569e+01
pressure[innode_2] 7.9231207510466788e+01
pressure[innode_3] 7.9143332893050015e+01
pressure[innode_4] 81.01325
pressure[innode_5] 8.0965072613218709e+01
pressure[innode_6] 7.5478906786140939e+01
pressure[innode_7] 81.01325
pressure[innode_8] 8.0471373150056351e+01
pressure[source_1] 81.01325
pressure[source_2] 81.01325
pressure[source_3] 81.01325
pressure[sink_1] 1.0132500000000002e+00
pressure[sink_2] 77.397452226601
pressure[sink_3] 8.0471373150056351e+01
pressure[sink_4] 2.9856678408471144e+01
pressure[sink_5] 2.3568635881828264e+01
pressure[sink_6] 1.2891089527981665e+00
pressure[sink_7] 1.7748355993411211e+00
pressure[sink_8] 3.0750572443878553e+01
pressure[sink_9] 2.4719217171582674e+01
pressure[sink_10] 7.7030580819259114e+01
pressure[sink_11] 7.6878879511655569e+01
pressure[sink_12] 1.01325
pressure[sink_13] 75.4764178407568
pressure[sink_14] 7.5504877049392690e+01
pressure[sink_15] 7.5742237873963063e+01
pressure[sink_16] 7.5857229676837889e+01
pressure[sink_17] 2.8690512409621608e+01
pressure[sink_18] 1.01325
pressure[sink_19] 7.9231207510466788e+01
pressure[sink_20] 3.5694821801023565e+01
pressure[sink_21] 1.01325
pressure[sink_22] 1.0132500000000002e+00
pressure[sink_23] 8.0306655138396565e+01
pressure[sink_24] 1.01325
pressure[sink_25] 7.5478906786140939e+01
pressure[sink_26] 2.5698056255525096e+01
pressure[sink_27] 8.0383867842902490e+01
pressure[sink_28] 7.7516439451447482e+01
pressure[sink_29] 7.7811721725064658e+01
interdiction[source_1,sink_3] 0
interdiction[innode_1,sink_16] 0
interdiction[innode_6,sink_13] 0
interdiction[sink_13,sink_14] 0
interdiction[sink_14,sink_10] 0
interdiction[sink_25,sink_26] 1
interdiction[sink_26,sink_9] 0
interdiction[sink_9,sink_18] 1
interdiction[sink_26,sink_4] 0
interdiction[sink_4,sink_20] 0
interdiction[sink_18,sink_6] 0
interdiction[sink_25,innode_8] 0
interdiction[sink_6,sink_7] 0
interdiction[sink_6,sink_22] 0
interdiction[sink_7,sink_24] 0
interdiction[sink_22,sink_1] 0
interdiction[sink_24,sink_21] 0
interdiction[sink_21,sink_12] 0
interdiction[sink_7,sink_5] 0
interdiction[sink_5,sink_17] 0
interdiction[sink_17,sink_4] 0
interdiction[sink_17,sink_8] 0
interdiction[sink_3,sink_23] 0
interdiction[sink_8,sink_20] 0
interdiction[sink_25,sink_20] 0
interdiction[sink_25,sink_15] 0
interdiction[sink_15,sink_29] 0
interdiction[sink_29,sink_28] 0
interdiction[sink_29,sink_2] 0
interdiction[sink_2,sink_15] 1
interdiction[sink_29,innode_7] 0
interdiction[innode_4,sink_19] 0
interdiction[sink_19,innode_3] 0
interdiction[innode_4,innode_5] 0
interdiction[sink_27,innode_5] 0
interdiction[sink_27,sink_19] 0
interdiction[sink_10,sink_11] 0
interdiction[sink_10,innode_2] 0
interdiction[sink_10,innode_3] 0
interdiction[innode_6,sink_25] 0
interdiction[sink_11,innode_1] 0
interdiction[sink_19,innode_2] 0
interdiction[source_3,innode_4] 0
interdiction[source_2,innode_7] 0
interdiction[sink_3,innode_8] 0
WCcheckFlow[source_1,sink_3] 39
WCcheckFlow[innode_1,sink_16] 1
WCcheckFlow[innode_6,sink_13] 13
WCcheckFlow[sink_13,sink_14] 12
WCcheckFlow[sink_14,sink_10] 11
WCcheckFlow[sink_25,sink_26] 0
WCcheckFlow[sink_26,sink_9] 1
WCcheckFlow[sink_9,sink_18] 0
WCcheckFlow[sink_26,sink_4] -2
WCcheckFlow[sink_4,sink_20] -14
WCcheckFlow[sink_18,sink_6] -1
WCcheckFlow[sink_25,innode_8] -36
WCcheckFlow[sink_6,sink_7] -4
WCcheckFlow[sink_6,sink_22] 2
WCcheckFlow[sink_7,sink_24] 3
WCcheckFlow[sink_22,sink_1] 1
WCcheckFlow[sink_24,sink_21] 2
WCcheckFlow[sink_21,sink_12] 1
WCcheckFlow[sink_7,sink_5] -8
WCcheckFlow[sink_5,sink_17] -9
WCcheckFlow[sink_17,sink_4] -11
WCcheckFlow[sink_17,sink_8] 1
WCcheckFlow[sink_3,sink_23] 1
WCcheckFlow[sink_8,sink_20] 0
WCcheckFlow[sink_25,sink_20] 15
WCcheckFlow[sink_25,sink_15] 6
WCcheckFlow[sink_15,sink_29] 5
WCcheckFlow[sink_29,sink_28] 1
WCcheckFlow[sink_29,sink_2] 1
WCcheckFlow[sink_2,sink_15] 0
WCcheckFlow[sink_29,innode_7] 2
WCcheckFlow[innode_4,sink_19] -4
WCcheckFlow[sink_19,innode_3] -5
WCcheckFlow[innode_4,innode_5] 2
WCcheckFlow[sink_27,innode_5] -1
WCcheckFlow[sink_27,sink_19] 0
WCcheckFlow[sink_10,sink_11] 3
WCcheckFlow[sink_10,innode_2] 1
WCcheckFlow[sink_10,innode_3] 6
WCcheckFlow[innode_6,sink_25] -14
WCcheckFlow[sink_11,innode_1] 2
WCcheckFlow[sink_19,innode_2] 0
WCcheckFlow[source_3,innode_4] -1
WCcheckFlow[source_2,innode_7] -1
WCcheckFlow[sink_3,innode_8] 37
